NAME : A-n39-k6
COMMENT : (Augerat et al, Min no of trucks: 6, Optimal value: 831)
TYPE : CVRP
DIMENSION : 39
EDGE_WEIGHT_TYPE : EUC_2D 
CAPACITY : 100
NODE_COORD_SECTION 
 1 39 19
 2 79 19
 3 41 79
 4 25 31
 5 63 93
 6 33 5
 7 69 17
 8 57 73
 9 53 75
 10 1 1
 11 79 73
 12 59 5
 13 1 37
 14 41 31
 15 23 73
 16 37 27
 17 85 93
 18 93 13
 19 85 45
 20 49 91
 21 55 43
 22 83 29
 23 93 49
 24 87 23
 25 31 23
 26 19 97
 27 41 9
 28 83 61
 29 9 7
 30 13 13
 31 43 37
 32 13 61
 33 71 51
 34 45 93
 35 93 55
 36 5 97
 37 81 11
 38 7 53
 39 7 41
DEMAND_SECTION 
1 0 
2 18 
3 16 
4 22 
5 24 
6 3 
7 19 
8 6 
9 6 
10 6 
11 12 
12 18 
13 16 
14 72 
15 7 
16 16 
17 23 
18 4 
19 22 
20 23 
21 7 
22 11 
23 11 
24 1 
25 22 
26 16 
27 15 
28 7 
29 5 
30 22 
31 9 
32 10 
33 11 
34 9 
35 3 
36 7 
37 15 
38 10 
39 2 
DEPOT_SECTION 
 1  
 -1  
EOF 
